AES/1_4_4/ssaes_r1-20_c4_rw1_e4_f0_k1-20_aes_canon_box_aes_mc_bidirectional/ExperimentMinisat_r17_k15cnf_2011-11-18-121923/Result
WARNING: for repeatability, setting FPU to use double precision
============================[ Problem Statistics ]=============================
|                                                                             |
|  Number of variables:          2632                                         |
|  Number of clauses:           15653                                         |
|  Parse time:                   0.01 s                                       |
|  Eliminated clauses:           0.02 Mb                                      |
|  Simplification time:          0.02 s                                       |
|                                                                             |
=============================[ Search Statistics ]==============================
| Conflicts  |          ORIGINAL         |          LEARNT          | Progress |
|            |    Vars  Clauses Literals |    Limit  Clauses Lit/Cl |          |
================================================================================
|        100 |    2159    14299    44395 |     5242      100     22 |  3.800 % |
|        250 |    2159    14299    44395 |     5767      250     24 |  3.800 % |
|        475 |    2159    14299    44395 |     6343      475     23 |  3.799 % |
|        812 |    2159    14299    44395 |     6978      812     23 |  3.800 % |
|       1318 |    2159    14299    44395 |     7676     1318     22 |  3.799 % |
|       2077 |    2159    14299    44395 |     8443     2077     23 |  3.799 % |
|       3216 |    2159    14299    44395 |     9288     3216     23 |  3.800 % |
|       4924 |    2159    14299    44395 |    10217     4924     25 |  3.800 % |
|       7486 |    2159    14299    44395 |    11238     7486     26 |  3.799 % |
===============================================================================
restarts              : 45
conflicts             : 10236          (6871 /sec)
decisions             : 12513          (0.00 % random) (8399 /sec)
propagations          : 9764432        (6554309 /sec)
conflict literals     : 264008         (60.00 % deleted)
Memory used           : 9.00 MB
CPU time              : 1.48977 s

SATISFIABLE
